Instance: E200-16b.dat
Class:  1
199 --- number of customers (no depot)
16 --- number of vehicles
199 --- number of items
Capacity - height - width of vehicles
   200     40     20
Node - x - y - demand  Readytime Duetime
  0.00   35.00  35.00   0.00 0       551.00
  1.00   41.00  49.00  10.00  98.00  123.00
  2.00   35.00  17.00   7.00 237.00  253.00
  3.00   55.00  45.00  13.00 243.00  264.00
  4.00   55.00  20.00  19.00 176.00  201.00
  5.00   15.00  30.00  26.00 107.00  122.00
  6.00   25.00  30.00   3.00 204.00  220.00
  7.00   20.00  50.00   5.00 318.00  338.00
  8.00   10.00  43.00   9.00  34.00   52.00
  9.00   55.00  60.00  16.00 237.00  264.00
 10.00   30.00  60.00  16.00 172.00  188.00
 11.00   20.00  65.00  12.00 302.00  324.00
 12.00   50.00  35.00  19.00 375.00  403.00
 13.00   30.00  25.00  23.00 426.00  453.00
 14.00   15.00  10.00  20.00 149.00  167.00
 15.00   30.00   5.00   8.00 101.00  130.00
 16.00   10.00  20.00  19.00 268.00  291.00
 17.00    5.00  30.00   2.00 276.00  299.00
 18.00   20.00  40.00  12.00 359.00  375.00
 19.00   15.00  60.00  17.00  39.00   54.00
 20.00   45.00  65.00   9.00  67.00   93.00
 21.00   45.00  20.00  11.00 109.00  130.00
 22.00   45.00  10.00  18.00 414.00  429.00
 23.00   55.00   5.00  29.00  69.00   92.00
 24.00   65.00  35.00   3.00 210.00  235.00
 25.00   65.00  20.00   6.00 135.00  152.00
 26.00   45.00  30.00  17.00 434.00  452.00
 27.00   35.00  40.00  16.00  22.00   52.00
 28.00   41.00  37.00  16.00 453.00  473.00
 29.00   64.00  42.00   9.00 383.00  406.00
 30.00   40.00  60.00  21.00  66.00   96.00
 31.00   31.00  52.00  27.00 444.00  471.00
 32.00   35.00  69.00  23.00 197.00  214.00
 33.00   53.00  52.00  11.00 175.00  204.00
 34.00   65.00  55.00  14.00 355.00  371.00
 35.00   63.00  65.00   8.00 313.00  342.00
 36.00    2.00  60.00   5.00 285.00  301.00
 37.00   20.00  20.00   8.00 115.00  144.00
 38.00    5.00   5.00  16.00 263.00  280.00
 39.00   60.00  12.00  31.00  70.00   87.00
 40.00   40.00  25.00   9.00  35.00   50.00
 41.00   42.00   7.00   5.00  25.00   50.00
 42.00   24.00  12.00   5.00 241.00  260.00
 43.00   23.00   3.00   7.00 422.00  450.00
 44.00   11.00  14.00  18.00 181.00  202.00
 45.00    6.00  38.00  16.00 323.00  343.00
 46.00    2.00  48.00   1.00 407.00  424.00
 47.00    8.00  56.00  27.00 400.00  417.00
 48.00   13.00  52.00  36.00 216.00  243.00
 49.00    6.00  68.00  30.00 301.00  324.00
 50.00   47.00  47.00  13.00 255.00  285.00
 51.00   49.00  58.00  10.00 367.00  383.00
 52.00   27.00  43.00   9.00 282.00  299.00
 53.00   37.00  31.00  14.00 201.00  226.00
 54.00   57.00  29.00  18.00 354.00  382.00
 55.00   63.00  23.00   2.00 319.00  349.00
 56.00   53.00  12.00   6.00  48.00   64.00
 57.00   32.00  12.00   7.00 170.00  189.00
 58.00   36.00  26.00  18.00  36.00   64.00
 59.00   21.00  24.00  28.00 242.00  262.00
 60.00   17.00  34.00   3.00  52.00   82.00
 61.00   12.00  24.00  13.00 406.00  429.00
 62.00   24.00  58.00  19.00 261.00  281.00
 63.00   27.00  69.00  10.00 235.00  261.00
 64.00   15.00  77.00   9.00  54.00   72.00
 65.00   62.00  77.00  20.00 433.00  457.00
 66.00   49.00  73.00  25.00 291.00  309.00
 67.00   67.00   5.00  25.00 387.00  410.00
 68.00   56.00  39.00  36.00  12.00   50.00
 69.00   37.00  47.00   6.00 399.00  422.00
 70.00   37.00  56.00   5.00 361.00  381.00
 71.00   57.00  68.00  15.00 314.00  330.00
 72.00   47.00  16.00  25.00 187.00  209.00
 73.00   44.00  17.00   9.00 131.00  157.00
 74.00   46.00  13.00   8.00 432.00  462.00
 75.00   49.00  11.00  18.00  73.00   99.00
 76.00   49.00  42.00  13.00 174.00  194.00
 77.00   53.00  43.00  14.00 350.00  365.00
 78.00   61.00  52.00   3.00  30.00   50.00
 79.00   57.00  48.00  23.00 143.00  167.00
 80.00   56.00  37.00   6.00  75.00   96.00
 81.00   55.00  54.00  26.00 139.00  161.00
 82.00   15.00  47.00  16.00 321.00  337.00
 83.00   14.00  37.00  11.00 285.00  303.00
 84.00   11.00  31.00   7.00 380.00  399.00
 85.00   16.00  22.00  41.00 292.00  309.00
 86.00    4.00  18.00  35.00 271.00  289.00
 87.00   28.00  18.00  26.00 218.00  237.00
 88.00   26.00  52.00   9.00 208.00  233.00
 89.00   26.00  35.00  15.00 140.00  160.00
 90.00   31.00  67.00   3.00 400.00  420.00
 91.00   15.00  19.00   1.00 202.00  221.00
 92.00   22.00  22.00   2.00 192.00  209.00
 93.00   18.00  24.00  22.00 249.00  274.00
 94.00   26.00  27.00  27.00  11.00   50.00
 95.00   25.00  24.00  20.00 139.00  164.00
 96.00   22.00  27.00  11.00  64.00   79.00
 97.00   25.00  21.00  12.00  54.00   80.00
 98.00   19.00  21.00  10.00 386.00  406.00
 99.00   20.00  26.00   9.00  13.00   50.00
100.00   18.00  18.00  17.00  49.00   67.00
101.00   37.00  52.00   7.00 305.00  334.00
102.00   49.00  49.00  30.00  26.00   50.00
103.00   52.00  64.00  16.00 120.00  147.00
104.00   20.00  26.00   9.00 122.00  138.00
105.00   40.00  30.00  21.00 147.00  165.00
106.00   21.00  47.00  15.00 363.00  384.00
107.00   17.00  63.00  19.00  66.00   86.00
108.00   31.00  62.00  23.00 257.00  279.00
109.00   52.00  33.00  11.00 228.00  257.00
110.00   51.00  21.00   5.00   7.00   50.00
111.00   42.00  41.00  19.00 137.00  152.00
112.00   31.00  32.00  29.00  17.00   50.00
113.00    5.00  25.00  23.00 153.00  172.00
114.00   12.00  42.00  21.00 236.00  258.00
115.00   36.00  16.00  10.00  75.00  100.00
116.00   52.00  41.00  15.00 409.00  433.00
117.00   27.00  23.00   3.00   3.00   50.00
118.00   17.00  33.00  41.00 361.00  389.00
119.00   13.00  13.00   9.00 426.00  445.00
120.00   57.00  58.00  28.00 170.00  185.00
121.00   62.00  42.00   8.00 319.00  343.00
122.00   42.00  57.00   8.00  37.00   54.00
123.00   16.00  57.00  16.00 115.00  132.00
124.00    8.00  52.00  10.00 118.00  145.00
125.00    7.00  38.00  28.00 383.00  398.00
126.00   27.00  68.00   7.00 170.00  193.00
127.00   30.00  48.00  15.00 318.00  341.00
128.00   43.00  67.00  14.00 233.00  260.00
129.00   58.00  48.00   6.00 134.00  155.00
130.00   58.00  27.00  19.00 199.00  222.00
131.00   37.00  69.00  11.00 193.00  215.00
132.00   38.00  46.00  12.00 227.00  255.00
133.00   46.00  10.00  23.00 236.00  255.00
134.00   61.00  33.00  26.00 205.00  225.00
135.00   62.00  63.00  17.00  43.00   58.00
136.00   63.00  69.00   6.00 420.00  446.00
137.00   32.00  22.00   9.00 163.00  178.00
138.00   45.00  35.00  15.00 150.00  168.00
139.00   59.00  15.00  14.00 428.00  444.00
140.00    5.00   6.00   7.00 441.00  470.00
141.00   10.00  17.00  27.00 295.00  312.00
142.00   21.00  10.00  13.00 131.00  148.00
143.00    5.00  64.00  11.00 345.00  365.00
144.00   30.00  15.00  16.00 355.00  382.00
145.00   39.00  10.00  10.00 367.00  388.00
146.00   32.00  39.00   5.00 312.00  331.00
147.00   25.00  32.00  25.00 144.00  172.00
148.00   25.00  55.00  17.00  80.00  106.00
149.00   48.00  28.00  18.00  30.00   52.00
150.00   56.00  37.00  10.00 120.00  146.00
151.00   22.00  22.00  18.00 411.00  440.00
152.00   36.00  26.00  26.00 344.00  362.00
153.00   21.00  45.00  11.00 221.00  242.00
154.00   45.00  35.00  30.00 244.00  274.00
155.00   55.00  20.00  21.00 288.00  309.00
156.00   33.00  34.00  19.00 161.00  177.00
157.00   50.00  50.00  15.00  24.00   50.00
158.00   55.00  45.00  16.00 329.00  345.00
159.00   26.00  59.00  29.00 155.00  174.00
160.00   40.00  66.00  26.00 293.00  308.00
161.00   55.00  65.00  37.00  85.00  101.00
162.00   35.00  51.00  16.00 302.00  318.00
163.00   62.00  35.00  12.00 274.00  302.00
164.00   62.00  57.00  31.00 123.00  145.00
165.00   62.00  24.00   8.00 213.00  229.00
166.00   21.00  36.00  19.00 210.00  227.00
167.00   33.00  44.00  20.00 237.00  253.00
168.00    9.00  56.00  13.00  53.00   75.00
169.00   62.00  48.00  15.00 394.00  420.00
170.00   66.00  14.00  22.00  49.00   69.00
171.00   44.00  13.00  28.00 411.00  435.00
172.00   26.00  13.00  12.00 429.00  444.00
173.00   11.00  28.00   6.00  24.00   50.00
174.00    7.00  43.00  27.00 239.00  268.00
175.00   17.00  64.00  14.00 443.00  469.00
176.00   41.00  46.00  18.00 176.00  200.00
177.00   55.00  34.00  17.00  37.00   58.00
178.00   35.00  16.00  29.00  31.00   61.00
179.00   52.00  26.00  13.00 114.00  137.00
180.00   43.00  26.00  22.00 100.00  124.00
181.00   31.00  76.00  25.00 223.00  242.00
182.00   22.00  53.00  28.00 452.00  467.00
183.00   26.00  29.00  27.00 223.00  244.00
184.00   50.00  40.00  19.00 408.00  429.00
185.00   55.00  50.00  10.00 336.00  356.00
186.00   54.00  10.00  12.00 252.00  281.00
187.00   60.00  15.00  14.00 259.00  288.00
188.00   47.00  66.00  24.00 237.00  263.00
189.00   30.00  60.00  16.00 302.00  325.00
190.00   30.00  50.00  33.00 191.00  209.00
191.00   12.00  17.00  15.00  27.00   50.00
192.00   15.00  14.00  11.00 447.00  471.00
193.00   16.00  19.00  18.00 313.00  336.00
194.00   21.00  48.00  17.00   8.00   50.00
195.00   50.00  30.00  21.00 174.00  190.00
196.00   51.00  42.00  27.00 257.00  274.00
197.00   50.00  15.00  19.00 395.00  410.00
198.00   48.00  21.00  20.00 317.00  345.00
199.00   12.00  38.00   5.00 125.00  143.00
Node - number of items - h - w for each item
    0   0
    1   2    7    4   26    3
    2   4    4   13    9    6   31    3    6    2
    3   2    7    6    7    5
    4   3    6    8    7    5   19    3
    5   4   15    7   30    3   30    3   29    3
    6   4    5   14    7    7   26    4   13    4
    7   1    6    6
    8   3    5    5   18    4   10    3
    9   2   10    8    8    6
   10   1   14    2
   11   2    7    9    7    4
   12   1    9    5
   13   1   23    3
   14   2   10    6   15    2
   15   4   14    4    6    3    6    3   27    2
   16   4    6    8    6    5   16    4   30    2
   17   3    8    6    7    4   23    3
   18   1   22    4
   19   4    4   14   10    6   29    3   29    2
   20   2   24    4   30    3
   21   1    6   13
   22   2   28    3   20    3
   23   4    9    8   16    3   25    2    4    2
   24   2    8    7   24    3
   25   4    6    9    7    5   16    4   10    4
   26   4    5    9   13    5    5    5   28    3
   27   1    6    9
   28   4    7   10    6    9    5    7   16    2
   29   2    5   14   10    6
   30   2    6   13   28    3
   31   4    9    5   14    4   26    3   25    2
   32   4    5   12    5    5   20    3   18    2
   33   1    4    7
   34   3    7    7    4    3   16    2
   35   2    6    6   22    2
   36   4   31    3   24    3   20    3   24    2
   37   4    8    8    7    8    4    6   31    2
   38   2    5    6   15    2
   39   2   11    7   23    4
   40   1   28    4
   41   1   20    3
   42   4    7   12    7    6   14    5   20    3
   43   2    8   10    4    7
   44   2    7    9    5    7
   45   4    8   10   11    5   31    4   15    4
   46   4   13    6    5    6    5    6   17    2
   47   2    8    7   25    3
   48   1    9    7
   49   3    7   11   13    7    8    6
   50   4    7   13    5   11    7    9    7    6
   51   2    6   12   13    6
   52   3    5    7    9    3    5    3
   53   2    7   11   31    2
   54   1   13    6
   55   2   12    4    5    3
   56   3   24    4   23    3   30    2
   57   3    4   11    6    6    5    2
   58   3    8    7   28    3   15    3
   59   2    6    6   24    4
   60   4    4    8   31    3   12    3   19    2
   61   4    4    8    5    5    9    4   27    2
   62   4   15    8    7    7    5    7   22    2
   63   2   13    6   21    2
   64   2    7    5   23    3
   65   4   12    8   15    7    7    7    8    5
   66   2    7   12    4   11
   67   3    5    9   24    4   19    3
   68   3    7   12    9    5   30    3
   69   2    5    4   21    2
   70   4    7    9    5    5    5    4   15    3
   71   2    7    7    5    7
   72   2    5   11    5   10
   73   2    8    9    7    8
   74   4    7    5   27    3   11    3   20    2
   75   1   31    3
   76   2    6    5   27    3
   77   1   17    3
   78   4    7   12    5    8   20    4   17    2
   79   4    5   12    5    6   25    3   30    2
   80   2   10    7   24    3
   81   2   11    6   24    4
   82   2    5    9   15    3
   83   2    7    6   15    3
   84   2    9    6   27    3
   85   2   31    4   19    3
   86   4    6    6    7    5    6    5   19    3
   87   2   24    4   21    3
   88   3    7   12    5    6    5    4
   89   3    7    9   10    8    6    4
   90   4   13    8    7    6   12    5   23    3
   91   2    7   12    7    5
   92   2    5    9    5    4
   93   1    8   13
   94   2    4   12    8    6
   95   3    8    8    6    7   13    2
   96   4    7   11    7    7   15    4   17    3
   97   2    7   14    6    5
   98   2    7    7    7    7
   99   2    6    5   14    4
  100   3   13    5   14    3   15    2
  101   4    6   12    7    9    8    8    9    2
  102   3    7    5   14    4   11    4
  103   2    4    7    6    6
  104   2    6   12   10    4
  105   3   10    5   21    3   16    3
  106   4    5   12    7   10    5    8   19    4
  107   2    5    9   11    6
  108   4    7    8   24    4   24    4   20    4
  109   3   20    3   28    2   23    2
  110   2   11    6    6    6
  111   2    7   10    6    4
  112   1   30    3
  113   1    6    7
  114   3    7    7    9    6   24    3
  115   3    5   13    8    7   19    2
  116   3    4    4   14    3   26    2
  117   4    8   10    5    6    4    6   30    2
  118   1   15    4
  119   3    5    8    5    7   12    2
  120   1    7    8
  121   1    6    5
  122   1    5   12
  123   2    6    8    6    2
  124   3   24    3   15    3   12    3
  125   1    7    6
  126   4    7   14    6    8   31    3    6    2
  127   1    7    5
  128   4    8   12    6   11    7    7   21    3
  129   1    5    7
  130   2    7   13    5    4
  131   4    6   14   12    7    7    7   29    3
  132   1   12    7
  133   1   13    4
  134   3    7    7    5    6   13    2
  135   4    5    9    4    4   17    2   15    2
  136   1   10    5
  137   2   13    4   24    3
  138   4    5   11   28    4   21    4   18    3
  139   3    8   11    7    6   21    3
  140   3    4    5   24    4   23    2
  141   1    5    5
  142   1   27    3
  143   1   31    3
  144   3    5   13   13    8   25    3
  145   4    5    7    9    6    9    3   14    2
  146   1   10    7
  147   4    6   10    6    5   15    4   16    2
  148   2    7    7   11    5
  149   1    8    7
  150   4    5    8    6    7    5    5   29    2
  151   4    7    6    4    6    7    5   22    2
  152   2    7   12   13    2
  153   2    8    8    7    3
  154   4    6    9    4    7   23    4   20    3
  155   3    7   14    6    7   22    3
  156   3    6    7   12    4    6    4
  157   2   23    3   18    3
  158   3    5   11   11    7    6    6
  159   2    6   11    5    8
  160   2   31    4   24    3
  161   2    5   11   28    3
  162   2   11    4   18    3
  163   2   18    2    8    2
  164   1   25    3
  165   2    7    8    5    4
  166   1    7    7
  167   1    5    4
  168   2   19    3    8    2
  169   3    5    7   32    3   15    2
  170   3    5   12    5   10    7    3
  171   4    7    8   15    5   10    3   16    2
  172   2   20    2    7    2
  173   4    7    7    7    5   26    3   22    3
  174   4    5   13    7   12   14    2    4    2
  175   2    4   13   15    3
  176   3    5    6   17    4   15    3
  177   4    8    8    4    7    8    4    8    4
  178   2    4    4   17    3
  179   4    7    9    6    8    4    6   15    4
  180   2   15    7    6    7
  181   2    6   13   29    3
  182   2    4   12   11    3
  183   3    8    5   30    4   19    3
  184   4    5    7   12    5    7    4   21    2
  185   1   17    2
  186   3    6    7   11    4   10    2
  187   4    7   13    8   10    4    6   25    4
  188   1   10    3
  189   2    5   12   11    4
  190   4    6    7   13    5   31    4   17    3
  191   1    5    8
  192   1   12    5
  193   2    4    5   18    3
  194   1   30    3
  195   4    4   12   11    5    6    5   10    3
  196   3    4    5    5    4   13    3
  197   2   15    4   10    3
  198   1   10    3
  199   2    4    6   12    2
  